frontend/benchmarks/isaplanner/smt2/prop_52.smt20.smt2
(declare-datatype Nat ((Z) (S (proj1-S Nat))))
(declare-datatype list ((nil) (cons (head Nat) (tail list))))
(declare-fun == (Nat Nat) Bool)
(declare-fun count (Nat list) Nat)
(declare-fun rev (list) list)
(assert (== Z Z))
(assert (forall ((z Nat)) (not (== Z (S z)))))
(assert (forall ((x2 Nat)) (not (== (S x2) Z))))
(assert
  (forall ((x2 Nat) (y2 Nat)) (= (== (S x2) (S y2)) (== x2 y2))))
(assert (forall ((x Nat)) (= (count x nil) Z)))
(assert
  (forall ((x Nat) (z Nat) (ys list))
    (=> (not (== x z)) (= (count x (cons z ys)) (count x ys)))))
(assert
  (forall ((x Nat) (z Nat) (ys list))
    (=> (== x z) (= (count x (cons z ys)) (S (count x ys))))))
(assert (= (rev nil) nil))
(assert
  (not
    (forall ((n Nat) (xs list)) (= (count n xs) (count n (rev xs))))))
(check-sat)
