experiments/isaplanner_proving/isaplanner_with_cs/prop_52.smt20.smt2.log
12:07:48 [WARN] Collecting statistics
12:07:48 [WARN]  ex is: Z
12:07:48 [WARN]  ex is: (S Z)
12:07:48 [WARN]  ex is: (S (S Z))
12:07:48 [WARN]  ex is: nil
12:07:48 [WARN]  ex is: (cons autovar_Nat_0 nil)
12:07:48 [WARN]  ex is: (cons autovar_Nat_1 (cons autovar_Nat_0 nil))
12:07:48 [WARN] Proof mode: false
12:07:48 [WARN]  ex is: Z
12:07:48 [WARN]  ex is: (S Z)
12:07:48 [WARN]  ex is: (S (S Z))
12:07:48 [WARN]  ex is: nil
12:07:48 [WARN]  ex is: (cons autovar_Nat_0 nil)
12:07:48 [WARN]  ex is: (cons autovar_Nat_1 (cons autovar_Nat_0 nil))
12:07:48 [WARN] Proof mode: false
12:07:48 [WARN] proved: (== Z ?ts_ph_Nat_0) => (== ?ts_ph_Nat_0 Z)
12:07:48 [WARN] proved: (== ?ts_ph_Nat_0 Z) => (== Z ?ts_ph_Nat_0)
12:07:48 [WARN] proved: (== ?ts_ph_Nat_0 ?ts_ph_Nat_0) => true
12:07:51 [WARN] proved: (== ?ts_ph_Nat_0 (S ?ts_ph_Nat_0)) => false
12:07:51 [WARN] proved: (== (S Z) ?ts_ph_Nat_0) => (== ?ts_ph_Nat_0 (S Z))
12:07:51 [WARN] proved: (== ?ts_ph_Nat_0 (S Z)) => (== (S Z) ?ts_ph_Nat_0)
12:07:51 [WARN] proved: (== ?ts_ph_Nat_0 ?ts_ph_Nat_1) => (== ?ts_ph_Nat_1 ?ts_ph_Nat_0)
12:07:51 [WARN] proved: (== ?ts_ph_Nat_1 ?ts_ph_Nat_0) => (== ?ts_ph_Nat_0 ?ts_ph_Nat_1)
